HUN,8,6,392
2,9,0,26,1,16,3,3,4,7,5,18
2,9,1,1,0,7,4,1,5,19,3,18
0,19,1,18,2,11,3,21,5,30,4,30
1,17,2,6,0,10,3,23,5,13,4,30
1,13,2,18,0,9,3,8,4,29,5,22
0,6,1,4,2,29,3,2,5,21,4,8
1,29,0,25,2,25,4,14,5,21,3,30
2,13,0,11,1,15,5,10,3,18,4,6
